<?xml version = "1.0" standalone="yes"?>
<!-- This file has been generated by DOcplex version 2.23.222  -->
<CPLEXSolution version="1.0">
 <header
   problemName="CVRP"
   objectiveValue="6943.28"
  />
 <variables>
  <variable name="x_0_1" index="0" value="1.00000"/>
  <variable name="x_0_2" index="1" value="1.00000"/>
  <variable name="x_0_3" index="2" value="1.00000"/>
  <variable name="x_0_4" index="3" value="1.00000"/>
  <variable name="x_0_5" index="4" value="1.00000"/>
  <variable name="x_0_7" index="6" value="1.00000"/>
  <variable name="x_0_8" index="7" value="1.00000"/>
  <variable name="x_0_9" index="8" value="1.00000"/>
  <variable name="x_0_10" index="9" value="1.00000"/>
  <variable name="x_1_6" index="15" value="1.00000"/>
  <variable name="x_2_0" index="20" value="1.00000"/>
  <variable name="x_3_0" index="30" value="1.00000"/>
  <variable name="x_4_0" index="40" value="1.00000"/>
  <variable name="x_5_0" index="50" value="1.00000"/>
  <variable name="x_6_0" index="60" value="1.00000"/>
  <variable name="x_7_0" index="70" value="1.00000"/>
  <variable name="x_8_0" index="80" value="1.00000"/>
  <variable name="x_9_0" index="90" value="1.00000"/>
  <variable name="x_10_0" index="100" value="1.00000"/>
  <variable name="u_1" index="110" value="37.00000"/>
  <variable name="u_2" index="111" value="67.00000"/>
  <variable name="u_3" index="112" value="65.00000"/>
  <variable name="u_4" index="113" value="63.00000"/>
  <variable name="u_5" index="114" value="75.00000"/>
  <variable name="u_6" index="115" value="68.00000"/>
  <variable name="u_7" index="116" value="54.00000"/>
  <variable name="u_8" index="117" value="51.00000"/>
  <variable name="u_9" index="118" value="45.00000"/>
  <variable name="u_10" index="119" value="51.00000"/>
 </variables>
</CPLEXSolution>
